%block AtomicCoordinatesAndAtomicSpecies
0.00 0.00 0.00 3 Cu1
0.50 0.50 0.20 1 O1
0.25 0.25 0.10 2 Ni1
0.50 0.00 0.40 1 O2
0.00 0.50 0.50 3 Cu2
0.25 0.75 0.30 2 Ni2
0.75 0.25 0.60 1 O3
0.75 0.75 0.70 2 Ni3
0.10 0.90 0.80 3 Cu3
%endblock Atomic.Coordinates_And-Atomic.Species
